CPXPARAM_MIP_Strategy_HeuristicFreq#P37#0#2.961225#0.726585
CPXPARAM_MIP_Strategy_HeuristicFreq#P37#20#2.531956#0.621257
CPXPARAM_MIP_Strategy_HeuristicFreq#P37#40#4.075167#0.999909
CPXPARAM_MIP_Strategy_HeuristicFreq#P37#100#4.075536#1.000000
